(set-logic HORN)
(set-info :source |
    Benchmark: C_VC
    Output by Princess (http://www.philipp.ruemmer.org/princess.shtml)
|)
(set-info :status sat)
;===============================================================================
; Encoding of Heap sorts and operations
;-------------------------------------------------------------------------------
(define-sort Addr() Int)
(declare-datatypes ((AddrRange 0))
                   (((AddrRange (AddrRangeStart Addr) (AddrRangeSize Int)))))

(declare-datatypes ((HeapObject 0))
                   (((O_Int (getInt Int)) (O_UInt (getUInt Int)) (O_Addr (getAddr Addr)) (defObj))))
(declare-datatypes ((BatchAllocResHeap 0) (AllocResHeap 0) (Heap 0))
                   (((BatchAllocResHeap   (newBatchHeap Heap) (newAddrRange AddrRange)))
                   ((AllocResHeap   (newHeap Heap) (newAddr Addr)))
                    ((HeapCtor (HeapSize Int)
                               (HeapContents (Array Addr HeapObject))))))
(define-fun nullAddr  () Addr 0)
(define-fun validHeap     ((h Heap) (p Addr)) Bool
  (and (>= (HeapSize h) p) (> p 0)))
(define-fun emptyHeap () Heap (
  HeapCtor 0 (( as const (Array Addr HeapObject)) defObj)))
(define-fun readHeap ((h Heap) (p Addr)) HeapObject
  (ite (validHeap h p)
       (select (HeapContents h) p)
       defObj))
(define-fun writeHeap ((h Heap) (p Addr) (o HeapObject)) Heap
  (ite (validHeap h p)
       (HeapCtor (HeapSize h) (store (HeapContents h) p o))
       h))
(define-fun allocHeap   ((h Heap) (o HeapObject)) AllocResHeap
  (AllocResHeap (HeapCtor (+ 1 (HeapSize h))
                    (store (HeapContents h) (+ 1 (HeapSize h)) o))
          (+ 1 (HeapSize h))))
(define-fun Heap-eq     ((h1 Heap) (h2 Heap)) Bool
  (forall ((p Addr))
          (and (= (validHeap h1 p) (validHeap h2 p))
               (= (readHeap h1 p) (readHeap h2 p)))))
(define-fun nthAddrRange((ar AddrRange) (n Int)) Addr
  (ite (and (>= n 0) (< n (AddrRangeSize ar)))
       (+ (AddrRangeStart ar) n)
       nullAddr))
(define-fun withinHeap ((ar AddrRange ) (p Addr)) Bool
  (and (>= p (AddrRangeStart ar)) (< p (+ (AddrRangeStart ar) (AddrRangeSize ar)))))

(declare-fun batchAllocHeap     (Heap Heap HeapObject Int Int) Bool)
(declare-fun batchAllocPostHeap (Heap Heap HeapObject Int) Bool)

(assert (forall ((h1 Heap) (h2 Heap) (o HeapObject) (n1 Int) (n2 Int))
                (=> (and (> n2 0) (batchAllocHeap h1 h2 o n1 n2))
                   (batchAllocHeap h1 (newHeap (allocHeap h2 o)) o n1 (- n2 1)))))
(assert (forall ((h1 Heap) (h2 Heap) (o HeapObject) (n1 Int) (n2 Int))
                (=> (and (<= n2 0) (batchAllocHeap h1 h2 o n1 n2))
                   (batchAllocPostHeap h1 h2 o n1))))

(declare-fun batchWriteHeap     (Heap Heap Addr Addr HeapObject Int Int) Bool)
(declare-fun batchWritePostHeap (Heap Heap Addr HeapObject Int) Bool)

(assert (forall ((h1 Heap) (h2 Heap) (a1 Addr) (a2 Addr) (o HeapObject) (n1 Int) (n2 Int))
                (=> (and (> n2 0) (batchWriteHeap h1 h2 a1 a2 o n1 n2))
                   (batchWriteHeap h1 (writeHeap h2 a2 o) a1 (+ a2 1) o n1 (- n2 1)))))
(assert (forall ((h1 Heap) (h2 Heap) (a1 Addr) (a2 Addr) (o HeapObject) (n1 Int) (n2 Int))
                (=> (and (<= n2 0) (batchWriteHeap h1 h2 a1 a2 o n1 n2))
                   (batchWritePostHeap h1 h2 a1 o n1))))

;===============================================================================
(declare-fun inv_main2 (Heap Int) Bool)
(declare-fun inv_main20 (Heap Int AddrRange AddrRange Int Int Int Int Int) Bool)
(declare-fun inv_main22 (Heap Int AddrRange AddrRange Int Int Int Int Int) Bool)
(declare-fun inv_main27 (Heap Int AddrRange AddrRange Int Int Int Int Int) Bool)
(declare-fun inv_main37 (Heap Int AddrRange AddrRange Int Int Int Int Int Int) Bool)
(declare-fun inv_main42 (Heap Int AddrRange AddrRange Int Int Int Int Int) Bool)
(declare-fun inv_main44 (Heap Int AddrRange AddrRange Int Int Int Int Int) Bool)
(declare-fun inv_main46 (Heap Int AddrRange AddrRange Int Int Int Int Int Int) Bool)
(assert (inv_main2 emptyHeap 0))
(assert (forall ((var0 Int) (var1 Int) (var2 Int) (var3 Int) (var4 Int) (var5 Int) (var6 Int) (var7 Int) (var8 Int) (var9 Int) (var10 Int) (var11 AddrRange) (var12 AddrRange) (var13 AddrRange) (var14 AddrRange) (var15 Int) (var16 Int) (var17 Heap) (var18 Heap) (var19 Int) (var20 Int) (var21 Int) (var22 Int) (var23 Int) (var24 Int) (var25 Int) (var26 Int) (var27 AddrRange) (var28 AddrRange) (var29 Int) (var30 Heap)) (or (not (and (and (and (and (and (and (and (and (and (and (and (and (and (and (and (and (and (and (and (and (and (and (and (and (inv_main37 var30 var29 var28 var27 var26 var25 var24 var23 var22 var21) (= var2 var22)) (= var0 var23)) (= var1 var24)) (= var7 var25)) (= var9 var26)) (= var11 var27)) (= var13 var28)) (= var15 var29)) (= var17 (writeHeap var30 (nthAddrRange var27 (+ (+ (* (- 1) 1) var21) (* (- 1) var23))) (O_Int (* var25 var23))))) (is-O_Int (readHeap var30 (nthAddrRange var27 (+ (+ (* (- 1) 1) var21) (* (- 1) var23)))))) (is-O_Int (readHeap var30 (nthAddrRange var27 (+ (+ (* (- 1) 1) var21) (* (- 1) var23)))))) (not (= var5 0))) (or (and (<= 0 (+ (+ (* (- 1) var19) var15) (* (- 1) 1))) (= var20 1)) (and (not (<= 0 (+ (+ (* (- 1) var19) var15) (* (- 1) 1)))) (= var20 0)))) (= var3 var2)) (= var4 var19)) (= var6 var5)) (= var8 var7)) (= var10 var9)) (= var12 var11)) (= var14 var13)) (= var16 var15)) (= var18 var17)) (<= 0 var19)) (not (= var20 0)))) (inv_main27 var18 var16 var14 var12 var10 var8 var6 var4 var3))))
(assert (forall ((var0 Int) (var1 Int) (var2 Int) (var3 Int) (var4 Int) (var5 Int) (var6 Int) (var7 Int) (var8 Int) (var9 Int) (var10 AddrRange) (var11 AddrRange) (var12 AddrRange) (var13 AddrRange) (var14 Int) (var15 Int) (var16 Heap) (var17 Heap) (var18 Int) (var19 Int) (var20 Int) (var21 Int) (var22 Int) (var23 Int) (var24 Int) (var25 AddrRange) (var26 AddrRange) (var27 Int) (var28 Heap)) (or (not (and (and (and (and (and (and (and (and (and (and (and (and (and (and (and (and (and (and (and (and (and (and (and (and (inv_main22 var28 var27 var26 var25 var24 var23 var22 var21 var20) (= var1 var20)) (= var0 var21)) (= var4 var22)) (= var6 var23)) (= var8 var24)) (= var10 var25)) (= var12 var26)) (= var14 var27)) (= var16 (writeHeap var28 (nthAddrRange var25 var24) (O_Int 0)))) (is-O_Int (readHeap var28 (nthAddrRange var25 var24)))) (is-O_Int (readHeap var28 (nthAddrRange var25 var24)))) (not (<= 0 (+ (+ (* (- 1) (+ var8 1)) var14) (* (- 1) 1))))) (or (and (<= 0 (+ (+ (* (- 1) var18) var14) (* (- 1) 1))) (= var19 1)) (and (not (<= 0 (+ (+ (* (- 1) var18) var14) (* (- 1) 1)))) (= var19 0)))) (= var2 var1)) (= var3 var18)) (= var5 var4)) (= var7 var6)) (= var9 (+ var8 1))) (= var11 var10)) (= var13 var12)) (= var15 var14)) (= var17 var16)) (<= 0 var18)) (not (= var19 0)))) (inv_main27 var17 var15 var13 var11 var9 var7 var5 var3 var2))))
(assert (forall ((var0 Int) (var1 Heap) (var2 Int) (var3 Int) (var4 Int) (var5 Heap) (var6 AddrRange) (var7 Int) (var8 Int) (var9 Int) (var10 Int) (var11 Int) (var12 Int) (var13 Int) (var14 Int) (var15 AddrRange) (var16 AddrRange) (var17 AddrRange) (var18 AddrRange) (var19 Int) (var20 Int) (var21 Heap) (var22 Heap) (var23 Int) (var24 Int) (var25 Int) (var26 Heap)) (or (not (and (and (batchAllocHeapPostHeap emptyHeap var5 (O_Int var4) var3) (batchAllocHeapPostHeap emptyHeap var21 (O_Int var8) var7)) (and (and (and (and (and (and (and (and (and (and (and (and (and (and (and (and (and (and (and (and (and (and (and (and (inv_main2 var26 var25) (or (and (<= 0 (+ var0 (* (- 1) 1))) (= var2 1)) (and (not (<= 0 (+ var0 (* (- 1) 1)))) (= var2 0)))) (= var3 var0)) (= var1 var26)) (not (= var2 0))) (= var6 (AddrRange (ite (<= 0 (+ var3 (- 1))) (+ (HeapSize emptyHeap) 1) (HeapSize emptyHeap)) var3))) (= var7 var3)) true) (= var15 (AddrRange (ite (<= 0 (+ var7 (- 1))) (+ (HeapSize emptyHeap) 1) (HeapSize emptyHeap)) var7))) (= var17 var6)) (= var19 var7)) true) (not (<= 0 (+ var19 (* (- 1) 1))))) (or (and (<= 0 (+ (+ (* (- 1) var23) var19) (* (- 1) 1))) (= var24 1)) (and (not (<= 0 (+ (+ (* (- 1) var23) var19) (* (- 1) 1)))) (= var24 0)))) (= var9 0)) (= var10 var23)) (= var12 var11)) (= var13 (* (- 1) 1))) (= var14 0)) (= var16 var15)) (= var18 var17)) (= var20 var19)) (= var22 var21)) (<= 0 var23)) (not (= var24 0))))) (inv_main27 var22 var20 var18 var16 var14 var13 var12 var10 var9))))
(assert (forall ((var0 Int) (var1 Heap) (var2 Int) (var3 Int) (var4 Int) (var5 Heap) (var6 AddrRange) (var7 Int) (var8 Int) (var9 Int) (var10 Int) (var11 Int) (var12 Int) (var13 Int) (var14 Int) (var15 AddrRange) (var16 AddrRange) (var17 AddrRange) (var18 AddrRange) (var19 Int) (var20 Int) (var21 Heap) (var22 Heap) (var23 Int) (var24 Int) (var25 Int) (var26 Heap)) (or (not (and (and (and (and (and (and (and (and (and (and (and (and (and (and (and (and (and (and (and (and (and (and (and (and (inv_main2 var26 var25) (or (and (<= 0 (+ var0 (* (- 1) 1))) (= var2 1)) (and (not (<= 0 (+ var0 (* (- 1) 1)))) (= var2 0)))) (= var3 var0)) (= var1 var26)) (not (= var2 0))) (= var6 (AddrRange (ite (<= 0 (+ var3 (- 1))) (+ (HeapSize emptyHeap) 1) (HeapSize emptyHeap)) var3))) (= var7 var3)) true) (= var15 (AddrRange (ite (<= 0 (+ var7 (- 1))) (+ (HeapSize emptyHeap) 1) (HeapSize emptyHeap)) var7))) (= var17 var6)) (= var19 var7)) true) (not (<= 0 (+ var19 (* (- 1) 1))))) (or (and (<= 0 (+ (+ (* (- 1) var23) var19) (* (- 1) 1))) (= var24 1)) (and (not (<= 0 (+ (+ (* (- 1) var23) var19) (* (- 1) 1)))) (= var24 0)))) (= var9 0)) (= var10 var23)) (= var12 var11)) (= var13 (* (- 1) 1))) (= var14 0)) (= var16 var15)) (= var18 var17)) (= var20 var19)) (= var22 var21)) (<= 0 var23)) (not (= var24 0)))) (batchAllocHeap emptyHeap emptyHeap (O_Int var4) var3 var3))))
(assert (forall ((var0 Int) (var1 Heap) (var2 Int) (var3 Int) (var4 Int) (var5 Heap) (var6 AddrRange) (var7 Int) (var8 Int) (var9 Int) (var10 Int) (var11 Int) (var12 Int) (var13 Int) (var14 Int) (var15 AddrRange) (var16 AddrRange) (var17 AddrRange) (var18 AddrRange) (var19 Int) (var20 Int) (var21 Heap) (var22 Heap) (var23 Int) (var24 Int) (var25 Int) (var26 Heap)) (or (not (and (and (and (and (and (and (and (and (and (and (and (and (and (and (and (and (and (and (and (and (and (and (and (and (inv_main2 var26 var25) (or (and (<= 0 (+ var0 (* (- 1) 1))) (= var2 1)) (and (not (<= 0 (+ var0 (* (- 1) 1)))) (= var2 0)))) (= var3 var0)) (= var1 var26)) (not (= var2 0))) (= var6 (AddrRange (ite (<= 0 (+ var3 (- 1))) (+ (HeapSize emptyHeap) 1) (HeapSize emptyHeap)) var3))) (= var7 var3)) true) (= var15 (AddrRange (ite (<= 0 (+ var7 (- 1))) (+ (HeapSize emptyHeap) 1) (HeapSize emptyHeap)) var7))) (= var17 var6)) (= var19 var7)) true) (not (<= 0 (+ var19 (* (- 1) 1))))) (or (and (<= 0 (+ (+ (* (- 1) var23) var19) (* (- 1) 1))) (= var24 1)) (and (not (<= 0 (+ (+ (* (- 1) var23) var19) (* (- 1) 1)))) (= var24 0)))) (= var9 0)) (= var10 var23)) (= var12 var11)) (= var13 (* (- 1) 1))) (= var14 0)) (= var16 var15)) (= var18 var17)) (= var20 var19)) (= var22 var21)) (<= 0 var23)) (not (= var24 0)))) (batchAllocHeap emptyHeap emptyHeap (O_Int var8) var7 var7))))
(assert (forall ((var0 Int) (var1 Int) (var2 Int) (var3 Int) (var4 Int) (var5 AddrRange) (var6 AddrRange) (var7 Int) (var8 Heap)) (or (not (and (and (inv_main20 var8 var7 var6 var5 var4 var3 var2 var1 var0) (is-O_Int (readHeap var8 (nthAddrRange var6 var4)))) (is-O_Int (readHeap var8 (nthAddrRange var6 var4))))) (inv_main22 (writeHeap var8 (nthAddrRange var6 var4) (O_Int 0)) var7 var6 var5 var4 var3 var2 var1 var0))))
(assert (forall ((var0 Int) (var1 Int) (var2 Int) (var3 Int) (var4 Int) (var5 AddrRange) (var6 AddrRange) (var7 Int) (var8 Heap) (var9 Int) (var10 Int) (var11 Int) (var12 Int) (var13 Int) (var14 AddrRange) (var15 AddrRange) (var16 Int) (var17 Heap)) (or (not (and (and (and (and (and (and (and (and (and (and (and (inv_main27 var17 var16 var15 var14 var13 var12 var11 var10 var9) (= var0 var9)) (= var1 var10)) (= var2 var11)) (= var3 var12)) (= var4 var13)) (= var5 var14)) (= var6 var15)) (= var7 var16)) (= var8 (writeHeap var17 (nthAddrRange var15 var10) (O_Int (* (* var12 var10) var12))))) (is-O_Int (readHeap var17 (nthAddrRange var15 var10)))) (is-O_Int (readHeap var17 (nthAddrRange var15 var10))))) (inv_main37 var8 var7 var6 var5 var4 var3 var2 var1 var0 var7))))
(assert (forall ((var0 Int) (var1 Int) (var2 Int) (var3 Int) (var4 Int) (var5 AddrRange) (var6 AddrRange) (var7 Heap) (var8 Int) (var9 Int) (var10 Int) (var11 Int) (var12 Int) (var13 Int) (var14 Int) (var15 Int) (var16 AddrRange) (var17 AddrRange) (var18 Int) (var19 Heap)) (or (not (and (and (and (and (and (and (and (and (and (and (and (and (and (inv_main37 var19 var18 var17 var16 var15 var14 var13 var12 var11 var10) (= var0 var11)) (= var1 var12)) (= var2 var13)) (= var3 var14)) (= var4 var15)) (= var5 var16)) (= var6 var17)) (= var9 var18)) (= var7 (writeHeap var19 (nthAddrRange var16 (+ (+ (* (- 1) 1) var10) (* (- 1) var12))) (O_Int (* var14 var12))))) (is-O_Int (readHeap var19 (nthAddrRange var16 (+ (+ (* (- 1) 1) var10) (* (- 1) var12)))))) (is-O_Int (readHeap var19 (nthAddrRange var16 (+ (+ (* (- 1) 1) var10) (* (- 1) var12)))))) (= var8 0)) (not (<= 0 (+ var9 (* (- 1) 1)))))) (inv_main42 var7 var9 var6 var5 0 var3 var8 var1 var0))))
(assert (forall ((var0 Int) (var1 Int) (var2 Int) (var3 Int) (var4 Int) (var5 AddrRange) (var6 AddrRange) (var7 Heap) (var8 Int) (var9 Int) (var10 Int) (var11 Int) (var12 Int) (var13 Int) (var14 Int) (var15 Int) (var16 AddrRange) (var17 AddrRange) (var18 Int) (var19 Heap)) (or (not (and (and (and (and (and (and (and (and (and (and (and (and (inv_main46 var19 var18 var17 var16 var15 var14 var13 var12 var11 var10) (= var0 (+ var10 (getInt (readHeap var19 (nthAddrRange var16 var15)))))) (= var1 var11)) (= var2 var12)) (= var3 var13)) (= var4 var14)) (= var8 var15)) (= var5 var16)) (= var6 var17)) (= var9 var18)) (= var7 var19)) (is-O_Int (readHeap var19 (nthAddrRange var16 var15)))) (not (<= 0 (+ (+ (* (- 1) (+ var8 1)) var9) (* (- 1) 1)))))) (inv_main42 var7 var9 var6 var5 (+ var8 1) var4 var3 var2 var0))))
(assert (forall ((var0 Int) (var1 Int) (var2 Int) (var3 Int) (var4 AddrRange) (var5 AddrRange) (var6 Heap) (var7 Int) (var8 Int) (var9 Int) (var10 Int) (var11 Int) (var12 Int) (var13 Int) (var14 AddrRange) (var15 AddrRange) (var16 Int) (var17 Heap)) (or (not (and (and (and (and (and (and (and (and (and (and (and (and (inv_main22 var17 var16 var15 var14 var13 var12 var11 var10 var9) (= var0 var9)) (= var1 var10)) (= var2 var11)) (= var3 var12)) (= var7 var13)) (= var4 var14)) (= var5 var15)) (= var8 var16)) (= var6 (writeHeap var17 (nthAddrRange var14 var13) (O_Int 0)))) (is-O_Int (readHeap var17 (nthAddrRange var14 var13)))) (is-O_Int (readHeap var17 (nthAddrRange var14 var13)))) (<= 0 (+ (+ (* (- 1) (+ var7 1)) var8) (* (- 1) 1))))) (inv_main20 var6 var8 var5 var4 (+ var7 1) var3 var2 var1 var0))))
(assert (forall ((var0 Int) (var1 Int) (var2 Int) (var3 Heap) (var4 Int) (var5 Int) (var6 Int) (var7 Heap) (var8 AddrRange) (var9 AddrRange) (var10 AddrRange) (var11 Int) (var12 Int) (var13 Heap) (var14 Int) (var15 Int) (var16 Heap)) (or (not (and (and (batchAllocHeapPostHeap emptyHeap var7 (O_Int var6) var5) (batchAllocHeapPostHeap emptyHeap var13 (O_Int var12) var11)) (and (and (and (and (and (and (and (and (and (and (and (and (inv_main2 var16 var15) (or (and (<= 0 (+ var2 (* (- 1) 1))) (= var4 1)) (and (not (<= 0 (+ var2 (* (- 1) 1)))) (= var4 0)))) (= var5 var2)) (= var3 var16)) (not (= var4 0))) (= var9 (AddrRange (ite (<= 0 (+ var5 (- 1))) (+ (HeapSize emptyHeap) 1) (HeapSize emptyHeap)) var5))) (= var11 var5)) true) (= var8 (AddrRange (ite (<= 0 (+ var11 (- 1))) (+ (HeapSize emptyHeap) 1) (HeapSize emptyHeap)) var11))) (= var10 var9)) (= var14 var11)) true) (<= 0 (+ var14 (* (- 1) 1)))))) (inv_main20 var13 var14 var10 var8 0 (* (- 1) 1) var1 var0 0))))
(assert (forall ((var0 Int) (var1 Int) (var2 Int) (var3 Heap) (var4 Int) (var5 Int) (var6 Int) (var7 Heap) (var8 AddrRange) (var9 AddrRange) (var10 AddrRange) (var11 Int) (var12 Int) (var13 Heap) (var14 Int) (var15 Int) (var16 Heap)) (or (not (and (and (and (and (and (and (and (and (and (and (and (and (inv_main2 var16 var15) (or (and (<= 0 (+ var2 (* (- 1) 1))) (= var4 1)) (and (not (<= 0 (+ var2 (* (- 1) 1)))) (= var4 0)))) (= var5 var2)) (= var3 var16)) (not (= var4 0))) (= var9 (AddrRange (ite (<= 0 (+ var5 (- 1))) (+ (HeapSize emptyHeap) 1) (HeapSize emptyHeap)) var5))) (= var11 var5)) true) (= var8 (AddrRange (ite (<= 0 (+ var11 (- 1))) (+ (HeapSize emptyHeap) 1) (HeapSize emptyHeap)) var11))) (= var10 var9)) (= var14 var11)) true) (<= 0 (+ var14 (* (- 1) 1))))) (batchAllocHeap emptyHeap emptyHeap (O_Int var6) var5 var5))))
(assert (forall ((var0 Int) (var1 Int) (var2 Int) (var3 Heap) (var4 Int) (var5 Int) (var6 Int) (var7 Heap) (var8 AddrRange) (var9 AddrRange) (var10 AddrRange) (var11 Int) (var12 Int) (var13 Heap) (var14 Int) (var15 Int) (var16 Heap)) (or (not (and (and (and (and (and (and (and (and (and (and (and (and (inv_main2 var16 var15) (or (and (<= 0 (+ var2 (* (- 1) 1))) (= var4 1)) (and (not (<= 0 (+ var2 (* (- 1) 1)))) (= var4 0)))) (= var5 var2)) (= var3 var16)) (not (= var4 0))) (= var9 (AddrRange (ite (<= 0 (+ var5 (- 1))) (+ (HeapSize emptyHeap) 1) (HeapSize emptyHeap)) var5))) (= var11 var5)) true) (= var8 (AddrRange (ite (<= 0 (+ var11 (- 1))) (+ (HeapSize emptyHeap) 1) (HeapSize emptyHeap)) var11))) (= var10 var9)) (= var14 var11)) true) (<= 0 (+ var14 (* (- 1) 1))))) (batchAllocHeap emptyHeap emptyHeap (O_Int var12) var11 var11))))
(assert (forall ((var0 Int) (var1 Int) (var2 Int) (var3 Int) (var4 Int) (var5 AddrRange) (var6 AddrRange) (var7 Int) (var8 Heap)) (or (not (and (inv_main44 var8 var7 var6 var5 var4 var3 var2 var1 var0) (is-O_Int (readHeap var8 (nthAddrRange var6 var4))))) (inv_main46 var8 var7 var6 var5 var4 var3 var2 var1 var0 (+ var0 (getInt (readHeap var8 (nthAddrRange var6 var4))))))))
(assert (forall ((var0 Int) (var1 Int) (var2 Int) (var3 Int) (var4 Int) (var5 AddrRange) (var6 AddrRange) (var7 Heap) (var8 Int) (var9 Int) (var10 Int) (var11 Int) (var12 Int) (var13 Int) (var14 Int) (var15 Int) (var16 AddrRange) (var17 AddrRange) (var18 Int) (var19 Heap)) (or (not (and (and (and (and (and (and (and (and (and (and (and (and (and (inv_main37 var19 var18 var17 var16 var15 var14 var13 var12 var11 var10) (= var0 var11)) (= var1 var12)) (= var2 var13)) (= var3 var14)) (= var4 var15)) (= var5 var16)) (= var6 var17)) (= var9 var18)) (= var7 (writeHeap var19 (nthAddrRange var16 (+ (+ (* (- 1) 1) var10) (* (- 1) var12))) (O_Int (* var14 var12))))) (is-O_Int (readHeap var19 (nthAddrRange var16 (+ (+ (* (- 1) 1) var10) (* (- 1) var12)))))) (is-O_Int (readHeap var19 (nthAddrRange var16 (+ (+ (* (- 1) 1) var10) (* (- 1) var12)))))) (= var8 0)) (<= 0 (+ var9 (* (- 1) 1))))) (inv_main44 var7 var9 var6 var5 0 var3 var8 var1 var0))))
(assert (forall ((var0 Int) (var1 Int) (var2 Int) (var3 Int) (var4 Int) (var5 AddrRange) (var6 AddrRange) (var7 Heap) (var8 Int) (var9 Int) (var10 Int) (var11 Int) (var12 Int) (var13 Int) (var14 Int) (var15 Int) (var16 AddrRange) (var17 AddrRange) (var18 Int) (var19 Heap)) (or (not (and (and (and (and (and (and (and (and (and (and (and (and (inv_main46 var19 var18 var17 var16 var15 var14 var13 var12 var11 var10) (= var0 (+ var10 (getInt (readHeap var19 (nthAddrRange var16 var15)))))) (= var1 var11)) (= var2 var12)) (= var3 var13)) (= var4 var14)) (= var8 var15)) (= var5 var16)) (= var6 var17)) (= var9 var18)) (= var7 var19)) (is-O_Int (readHeap var19 (nthAddrRange var16 var15)))) (<= 0 (+ (+ (* (- 1) (+ var8 1)) var9) (* (- 1) 1))))) (inv_main44 var7 var9 var6 var5 (+ var8 1) var4 var3 var2 var0))))
(assert (forall ((var0 Int) (var1 Int) (var2 Int) (var3 Int) (var4 Int) (var5 AddrRange) (var6 AddrRange) (var7 Int) (var8 Heap)) (not (and (inv_main20 var8 var7 var6 var5 var4 var3 var2 var1 var0) (not (is-O_Int (readHeap var8 (nthAddrRange var6 var4))))))))
(assert (forall ((var0 Int) (var1 Int) (var2 Int) (var3 Int) (var4 Int) (var5 AddrRange) (var6 AddrRange) (var7 Int) (var8 Heap)) (not (and (and (inv_main20 var8 var7 var6 var5 var4 var3 var2 var1 var0) (not (withinHeap var6 (nthAddrRange var6 var4)))) (is-O_Int (readHeap var8 (nthAddrRange var6 var4)))))))
(assert (forall ((var0 Int) (var1 Int) (var2 Int) (var3 Int) (var4 Int) (var5 AddrRange) (var6 AddrRange) (var7 Int) (var8 Heap)) (not (and (and (inv_main20 var8 var7 var6 var5 var4 var3 var2 var1 var0) (not (is-O_Int (readHeap var8 (nthAddrRange var6 var4))))) (is-O_Int (readHeap var8 (nthAddrRange var6 var4)))))))
(assert (forall ((var0 Int) (var1 Int) (var2 Int) (var3 Int) (var4 Int) (var5 AddrRange) (var6 AddrRange) (var7 Int) (var8 Heap)) (not (and (inv_main22 var8 var7 var6 var5 var4 var3 var2 var1 var0) (not (is-O_Int (readHeap var8 (nthAddrRange var5 var4))))))))
(assert (forall ((var0 Int) (var1 Int) (var2 Int) (var3 Int) (var4 Int) (var5 AddrRange) (var6 AddrRange) (var7 Int) (var8 Heap)) (not (and (and (inv_main22 var8 var7 var6 var5 var4 var3 var2 var1 var0) (not (withinHeap var5 (nthAddrRange var5 var4)))) (is-O_Int (readHeap var8 (nthAddrRange var5 var4)))))))
(assert (forall ((var0 Int) (var1 Int) (var2 Int) (var3 Int) (var4 Int) (var5 AddrRange) (var6 AddrRange) (var7 Int) (var8 Heap)) (not (and (and (inv_main22 var8 var7 var6 var5 var4 var3 var2 var1 var0) (not (is-O_Int (readHeap var8 (nthAddrRange var5 var4))))) (is-O_Int (readHeap var8 (nthAddrRange var5 var4)))))))
(assert (forall ((var0 Int) (var1 Int) (var2 Int) (var3 Int) (var4 Int) (var5 AddrRange) (var6 AddrRange) (var7 Int) (var8 Heap)) (not (and (inv_main27 var8 var7 var6 var5 var4 var3 var2 var1 var0) (not (is-O_Int (readHeap var8 (nthAddrRange var6 var1))))))))
(assert (forall ((var0 Int) (var1 Int) (var2 Int) (var3 Int) (var4 Int) (var5 AddrRange) (var6 AddrRange) (var7 Int) (var8 Heap)) (not (and (and (inv_main27 var8 var7 var6 var5 var4 var3 var2 var1 var0) (not (withinHeap var6 (nthAddrRange var6 var1)))) (is-O_Int (readHeap var8 (nthAddrRange var6 var1)))))))
(assert (forall ((var0 Int) (var1 Int) (var2 Int) (var3 Int) (var4 Int) (var5 AddrRange) (var6 AddrRange) (var7 Int) (var8 Heap)) (not (and (and (inv_main27 var8 var7 var6 var5 var4 var3 var2 var1 var0) (not (is-O_Int (readHeap var8 (nthAddrRange var6 var1))))) (is-O_Int (readHeap var8 (nthAddrRange var6 var1)))))))
(assert (forall ((var0 Int) (var1 Int) (var2 Int) (var3 Int) (var4 Int) (var5 Int) (var6 AddrRange) (var7 AddrRange) (var8 Int) (var9 Heap)) (not (and (inv_main37 var9 var8 var7 var6 var5 var4 var3 var2 var1 var0) (not (is-O_Int (readHeap var9 (nthAddrRange var6 (+ (+ (* (- 1) 1) var0) (* (- 1) var2))))))))))
(assert (forall ((var0 Int) (var1 Int) (var2 Int) (var3 Int) (var4 Int) (var5 Int) (var6 AddrRange) (var7 AddrRange) (var8 Int) (var9 Heap)) (not (and (and (inv_main37 var9 var8 var7 var6 var5 var4 var3 var2 var1 var0) (not (withinHeap var6 (nthAddrRange var6 (+ (+ (* (- 1) 1) var0) (* (- 1) var2)))))) (is-O_Int (readHeap var9 (nthAddrRange var6 (+ (+ (* (- 1) 1) var0) (* (- 1) var2)))))))))
(assert (forall ((var0 Int) (var1 Int) (var2 Int) (var3 Int) (var4 Int) (var5 Int) (var6 AddrRange) (var7 AddrRange) (var8 Int) (var9 Heap)) (not (and (and (inv_main37 var9 var8 var7 var6 var5 var4 var3 var2 var1 var0) (not (is-O_Int (readHeap var9 (nthAddrRange var6 (+ (+ (* (- 1) 1) var0) (* (- 1) var2))))))) (is-O_Int (readHeap var9 (nthAddrRange var6 (+ (+ (* (- 1) 1) var0) (* (- 1) var2)))))))))
(assert (forall ((var0 Int) (var1 Int) (var2 Int) (var3 Int) (var4 Int) (var5 AddrRange) (var6 AddrRange) (var7 Int) (var8 Heap)) (not (and (inv_main44 var8 var7 var6 var5 var4 var3 var2 var1 var0) (not (is-O_Int (readHeap var8 (nthAddrRange var6 var4))))))))
(assert (forall ((var0 Int) (var1 Int) (var2 Int) (var3 Int) (var4 Int) (var5 AddrRange) (var6 AddrRange) (var7 Int) (var8 Heap)) (not (and (and (inv_main44 var8 var7 var6 var5 var4 var3 var2 var1 var0) (not (withinHeap var6 (nthAddrRange var6 var4)))) (is-O_Int (readHeap var8 (nthAddrRange var6 var4)))))))
(assert (forall ((var0 Int) (var1 Int) (var2 Int) (var3 Int) (var4 Int) (var5 Int) (var6 AddrRange) (var7 AddrRange) (var8 Int) (var9 Heap)) (not (and (inv_main46 var9 var8 var7 var6 var5 var4 var3 var2 var1 var0) (not (is-O_Int (readHeap var9 (nthAddrRange var6 var5))))))))
(assert (forall ((var0 Int) (var1 Int) (var2 Int) (var3 Int) (var4 Int) (var5 Int) (var6 AddrRange) (var7 AddrRange) (var8 Int) (var9 Heap)) (not (and (and (inv_main46 var9 var8 var7 var6 var5 var4 var3 var2 var1 var0) (not (withinHeap var6 (nthAddrRange var6 var5)))) (is-O_Int (readHeap var9 (nthAddrRange var6 var5)))))))
(assert (forall ((var0 Int) (var1 Int) (var2 Int) (var3 Int) (var4 Int) (var5 AddrRange) (var6 AddrRange) (var7 Int) (var8 Heap)) (not (and (inv_main42 var8 var7 var6 var5 var4 var3 var2 var1 var0) (not (= var0 0))))))
(check-sat)
